Route #1: 1 13 8 2 14 9 15 21 28 36 47 35 27 41 46 53 59 65 72 78 77 71 64 63 76 84 94 95 100 87 96 88 97 89 90 85 79 74 68 56 42 61 62 51 43 44 39 45 57 70 69 82 81 80 91 92 98 93 99 86 83 75 58 52 40 34 26 12 7 20 11 6 19 25 33 32 31 24 17 18 5 4 3 16 23 30 38 50 55 67 66 73 60 54 48 49 37 29 22 10
Cost 45415
